%%% static parameters %%%
timespan = 1;
Fact = [2];
Distr1 = [5];
Distr2 = [10];
Clients_N = [100];
Demand_W = [15];
Lt0 = [4];
Lt1 = [4];
SS_ = [0.85];
DS_D = [8];
K = [200];
MA = [500];
%%% dynamic parameters %%%
lost_ratio_sales_ret_th = 0.0662862109976824;
lost_ratio_sales_ret_w = 70;
lost_ratio_sales_dis_th = 0.7742893663066172;
lost_ratio_sales_dis_w = 20;
lost_ratio_sales_fac_th = 0.42551569757019436;
lost_ratio_sales_fac_w = 57;
stock_customer_MA_mean_relative_th = 0.04863502479899584;
stock_customer_MA_mean_relative_w = 15;
stock_distributor_MA_mean_relative_th = 0.20546523626436108;
stock_distributor_MA_mean_relative_w = 44;
stock_retailer_MA_mean_relative_th = 0.2923909332966508;
stock_retailer_MA_mean_relative_w = 11;
stock_factory_MA_mean_relative_th = 0.27821741245899356;
stock_factory_MA_mean_relative_w = 39;
